# Solution for model F-JSSP-SDST
# Objective value = 653
B0(9) 1
B1(13) 0
B2(9) 1
B3(13) 0
B4(13) 1
B5(14) 1
B6(10) 1
B7(14) 0
B8(10) 0
B9(14) 1
B10(0) 0
B11(0) 0
B12(2) 0
B13(2) 0
B14(4) 0
B15(4) 0
B16(0) 0
B17(0) 0
B18(2) 0
B19(2) 0
B20(4) 0
B21(4) 0
B22(0) 0
B23(0) 0
B24(0) 0
B25(0) 0
B26(2) 0
B27(2) 0
B28(0) 0
B29(0) 0
B30(0) 0
B31(0) 0
B32(2) 0
B33(2) 0
B34(0) 0
B35(0) 0
B36(0) 0
B37(0) 0
B38(0) 0
B39(0) 0
B40(0) 0
B41(0) 0
B42(0) 0
B43(0) 0
B44(0) 0
B45(0) 0
I46(10) 0
I47(14) 0
I48(13) 63
I49(17) 0
I50(13) 11
I51(16) 142
I52(10) 161
I53(14) 0
I54(13) 0
I55(17) 306
I56(1) 653
B57(0) 0
B58(0) 0
B59(3) 1
B60(3) 0
B61(0) 0
B62(3) 1
B63(0) 0
B64(0) 0
B65(3) 0
B66(3) 1
